(declare-fun e () String)
(declare-fun g () String)
(declare-fun b () String)
(declare-fun d () String)
(declare-fun h () String)
(assert (= (str.++ g "a" h) b))
(assert (= (str.++ d "f") (str.++ "hf" e)))
(assert (= (str.++ "aae" e) (str.++ g h "e" d "d")))

(check-sat)
